CMD:
./solvers/bin/cadical --plain --no-reduce -t 1600 ./data/cnfs//rast-p19/rast-p19.1.cnf

c --- [ banner ] -------------------------------------------------------------
c 
c CaDiCaL SAT Solver
c Copyright (c) 2016-2024
c A. Biere, M. Fleury, N. Froleyks, K. Fazekas, F. Pollitt, T. Faller
c JKU Linz, University of Freiburg, TU Wien
c 
c Version 2.1.3 5296d3d2a9bf48c154ab2acb5e44625776d821bf
c g++ (Gentoo 12.3.1_p20230526 p2) 12.3.1 20230526 -Wall -Wextra -O3 -DNDEBUG
c Sat Aug 9 07:26:21 PDT 2025 Linux cedar2.int.cedar.computecanada.ca 5.14.0-362.24.2.el9_3.x86_64 x86_64
c 
c --- [ limit ] --------------------------------------------------------------
c 
c setting time limit to 1600 seconds real time (due to '-t 1600')
c 
c --- [ parsing input ] ------------------------------------------------------
c 
c reading DIMACS file from './data/cnfs//rast-p19/rast-p19.1.cnf'
c opening file to read './data/cnfs//rast-p19/rast-p19.1.cnf'
c found 'p cnf 113209 325006' header
c parsed 325006 clauses in 0.04 seconds process time
c 
c --- [ options ] ------------------------------------------------------------
c 
c   --compact=false                (different from default 'true')
c   --decompose=false              (different from default 'true')
c   --deduplicate=false            (different from default 'true')
c   --elim=false                   (different from default 'true')
c   --probe=false                  (different from default 'true')
c   --reduce=false                 (different from default 'true')
c   --subsume=false                (different from default 'true')
c   --ternary=false                (different from default 'true')
c   --transred=false               (different from default 'true')
c   --vivify=false                 (different from default 'true')
c 
c --- [ solving ] ------------------------------------------------------------
c 
c time measured in process time since initialization
c 
c  seconds  reductions  redundant  irredundant
c         MB    restarts       trail      variables
c          level   conflicts       glue        remaining
c 
c *  0.04 40  0 0   0    0    0  0% 0 176310 8716  8%
c {  0.04 40  0 0   0    0    0  0% 0 176310 8716  8%
c i  0.04 40  1 0   0    1    0 93% 0 176310 8715  8%
c i  0.04 40  1 0   0    2    0 93% 0 176310 8714  8%
c i  0.04 40 133 0   0   10    7 95% 1 176310 8712  8%
c i  0.04 40 201 0   0   20   15 96% 1 176310 8481  7%
c i  0.05 40 272 0   0   90   84 97% 2 176310 8474  7%
c i  0.05 40 271 0   0   91   84 97% 2 176310 8470  7%
c i  0.05 40 271 0   0   92   84 97% 2 176310 8466  7%
c i  0.05 40 271 0   0   93   84 97% 2 176310 8463  7%
c i  0.05 40 271 0   0   94   84 97% 2 176310 8459  7%
c i  0.05 41 270 0   1  153  142 97% 2 176310 7771  7%
c i  0.05 41 265 0   1  156  143 97% 2 176310 7758  7%
c }  0.05 41 262 0   1  160  143 97% 2 176310 7739  7%
c 0  0.05 41 262 0   1  160  143 97% 2 176310 7739  7%
c 
c --- [ result ] -------------------------------------------------------------
c 
s UNSATISFIABLE
c 
c --- [ run-time profiling ] -------------------------------------------------
c 
c process time taken by individual solving procedures
c (percentage relative to process time for solving)
c 
c         0.04  440.89% parse
c         0.01   99.06% search
c         0.01   88.60% unstable
c         0.00   10.35% lucky
c         0.00    0.00% simplify
c   =================================
c         0.01   18.35% solve
c 
c last line shows process time for solving
c (percentage relative to total process time)
c 
c --- [ statistics ] ---------------------------------------------------------
c 
c chronological:                37        23.12 %  of conflicts
c conflicts:                   160     17578.55    per second
c decisions:                   938    103054.27    per second
c fixed:                    102907        90.90 %  of all variables
c learned:                     158        98.75 %  per conflict
c learned_lits:                533       100.00 %  learned literals
c minimized:                     0         0.00 %  learned literals
c shrunken:                     32         6.00 %  learned literals
c minishrunken:                  4         0.75 %  learned literals
c otfs:                          0         0.00 %  of conflict
c propagations:             120465        13.24 M  per second
c restarts:                      1       160.00    interval
c subsumed:                      1         0.00 %  of all clauses
c 
c seconds are measured in process time for solving
c 
c --- [ resources ] ----------------------------------------------------------
c 
c total process time since initialization:         0.05    seconds
c total real time since initialization:            0.05    seconds
c maximum resident set size of process:           38.27    MB
c 
c --- [ shutting down ] ------------------------------------------------------
c 
c exit 20
